NAME          ClpDefau  FREE
ROWS
 N  OBJROW
 L  ZMUNI1_PCT
 L  ZMUNI2_PCT
 L  ZMUNI3_PCT
 L  ZMUNI4_PCT
 L  ZMUNI5_PCT
 L  ZMUNI6_PCT
 L  ZMUNI7_PCT
 L  ZMUNI8_PCT
 L  ZMUNI9_PCT
COLUMNS
    QMUNI1 OBJROW 1.          
    QMUNI1 ZMUNI1_PCT 34431.839   
    QMUNI1 ZMUNI2_PCT 2005.5771   
    QMUNI1 ZMUNI3_PCT 4590.9882   
    QMUNI1 ZMUNI4_PCT 3408.8134   
    QMUNI1 ZMUNI5_PCT 889.0152    
    QMUNI1 ZMUNI6_PCT 965.8813    
    QMUNI1 ZMUNI7_PCT 3286.3617   
    QMUNI1 ZMUNI8_PCT 2616.5008   
    QMUNI1 ZMUNI9_PCT 994.4915    
    QMUNI2 OBJROW 1.          
    QMUNI2 ZMUNI1_PCT 2035.141    
    QMUNI2 ZMUNI2_PCT 36954.1168  
    QMUNI2 ZMUNI3_PCT 2664.5661   
    QMUNI2 ZMUNI4_PCT 2832.4127   
    QMUNI2 ZMUNI5_PCT 433.5403    
    QMUNI2 ZMUNI6_PCT 429.3442    
    QMUNI2 ZMUNI7_PCT 1690.2924   
    QMUNI2 ZMUNI8_PCT 1927.5665   
    QMUNI2 ZMUNI9_PCT 1475.9063   
    QMUNI3 OBJROW 1.          
    QMUNI3 ZMUNI1_PCT 4761.1236   
    QMUNI3 ZMUNI2_PCT 2763.9389   
    QMUNI3 ZMUNI3_PCT 32512.6648  
    QMUNI3 ZMUNI4_PCT 5295.1812   
    QMUNI3 ZMUNI5_PCT 524.9023    
    QMUNI3 ZMUNI6_PCT 599.6704    
    QMUNI3 ZMUNI7_PCT 2666.4734   
    QMUNI3 ZMUNI8_PCT 2460.4797   
    QMUNI3 ZMUNI9_PCT 1115.7989   
    QMUNI4 OBJROW 1.          
    QMUNI4 ZMUNI1_PCT 3947.8302   
    QMUNI4 ZMUNI2_PCT 3435.7071   
    QMUNI4 ZMUNI3_PCT 5884.552    
    QMUNI4 ZMUNI4_PCT 115951.7288 
    QMUNI4 ZMUNI5_PCT 108.1466    
    QMUNI4 ZMUNI6_PCT 253.2959    
    QMUNI4 ZMUNI7_PCT 2230.072    
    QMUNI4 ZMUNI8_PCT 2267.8375   
    QMUNI4 ZMUNI9_PCT 1505.661    
    QMUNI5 OBJROW 1.          
    QMUNI5 ZMUNI1_PCT 416.9464    
    QMUNI5 ZMUNI2_PCT 228.1189    
    QMUNI5 ZMUNI3_PCT 337.2193    
    QMUNI5 ZMUNI4_PCT 302.124     
    QMUNI5 ZMUNI5_PCT 42752.4566  
    QMUNI5 ZMUNI6_PCT 3335.9528   
    QMUNI5 ZMUNI7_PCT 709.1522    
    QMUNI5 ZMUNI8_PCT 412.7502    
    QMUNI5 ZMUNI9_PCT 116.7297    
    QMUNI6 OBJROW 1.          
    QMUNI6 ZMUNI1_PCT 705.3375    
    QMUNI6 ZMUNI2_PCT 428.9627    
    QMUNI6 ZMUNI3_PCT 556.5644    
    QMUNI6 ZMUNI4_PCT 479.5074    
    QMUNI6 ZMUNI5_PCT 3742.7902   
    QMUNI6 ZMUNI6_PCT 36928.9398  
    QMUNI6 ZMUNI7_PCT 1289.3677   
    QMUNI6 ZMUNI8_PCT 949.0966    
    QMUNI6 ZMUNI9_PCT 802.6123    
    QMUNI7 OBJROW 1.          
    QMUNI7 ZMUNI1_PCT 1998.5199   
    QMUNI7 ZMUNI2_PCT 1190.9485   
    QMUNI7 ZMUNI3_PCT 1634.9793   
    QMUNI7 ZMUNI4_PCT 1285.9344   
    QMUNI7 ZMUNI5_PCT 808.3343    
    QMUNI7 ZMUNI6_PCT 944.9005    
    QMUNI7 ZMUNI7_PCT 47522.7356  
    QMUNI7 ZMUNI8_PCT 4684.0667   
    QMUNI7 ZMUNI9_PCT 2051.9256   
    QMUNI8 OBJROW 1.          
    QMUNI8 ZMUNI1_PCT 1749.4202   
    QMUNI8 ZMUNI2_PCT 1386.261    
    QMUNI8 ZMUNI3_PCT 1605.6061   
    QMUNI8 ZMUNI4_PCT 1297.3785   
    QMUNI8 ZMUNI5_PCT 786.0184    
    QMUNI8 ZMUNI6_PCT 830.2689    
    QMUNI8 ZMUNI7_PCT 4599.762    
    QMUNI8 ZMUNI8_PCT 45490.6463  
    QMUNI8 ZMUNI9_PCT 2693.5577   
    QMUNI9 OBJROW 1.          
    QMUNI9 ZMUNI1_PCT 318.1457    
    QMUNI9 ZMUNI2_PCT 532.7224    
    QMUNI9 ZMUNI3_PCT 381.8512    
    QMUNI9 ZMUNI4_PCT 341.0339    
    QMUNI9 ZMUNI5_PCT  -168.0374  
    QMUNI9 ZMUNI6_PCT  -152.2064  
    QMUNI9 ZMUNI7_PCT 277.3285    
    QMUNI9 ZMUNI8_PCT 945.2819    
    QMUNI9 ZMUNI9_PCT 38031.7688  
RHS
    RHS ZMUNI1_PCT 4.3298688731
    RHS ZMUNI2_PCT  -2.51151556
    RHS ZMUNI3_PCT  -2.76217639
    RHS ZMUNI4_PCT 2.6847101938
    RHS ZMUNI5_PCT  -5.3928582 
    RHS ZMUNI6_PCT  -3.67217095
    RHS ZMUNI7_PCT  -11.7223614
    RHS ZMUNI8_PCT  -7.67837043
    RHS ZMUNI9_PCT  -6.49998323
BOUNDS
 LO BOUND QMUNI1 -0.000291015
 UP BOUND QMUNI1      1.1e+10
 LO BOUND QMUNI2 -0.000386703
 UP BOUND QMUNI2      1.1e+10
 LO BOUND QMUNI3 -0.000463968
 UP BOUND QMUNI3      1.1e+10
 LO BOUND QMUNI4 -0.000164769
 UP BOUND QMUNI4      1.1e+10
 LO BOUND QMUNI5 -0.000187849
 UP BOUND QMUNI5      1.1e+10
 LO BOUND QMUNI6 -0.000341697
 UP BOUND QMUNI6      1.1e+10
 LO BOUND QMUNI7 0.0         
 UP BOUND QMUNI7      1.1e+10
 LO BOUND QMUNI8 0.0         
 UP BOUND QMUNI8      1.1e+10
 LO BOUND QMUNI9  -3.87774e-5
 UP BOUND QMUNI9      1.1e+10
ENDATA
